\ENCODING=ISO-8859-1
\Problem name: IloCplex

Maximize
 obj1: x1
Subject To
 c1: 13 x2 + 5 x3 + 5 x4 + 9 x5 + 10 x6 + 11 x7 + 14 x8 + 15 x9 + 12 x10
     + 10 x11 <= 52
 c2: 9999.47 x1 - 450 x2 - 171 x3 - 947 x4 - 670 x5 - 774 x6 - 523 x7 - 427 x8
     - 901 x9 - 288 x10 - 367 x11 <= -1
 c3: 22501 x1 - 98 x2 - 465 x3 - 492 x4 - 435 x5 - 822 x6 - 599 x7 - 631 x8
     - 386 x9 - 369 x10 - 994 x11 <= -1
 c4: 87840.181 x1 - 494 x2 - 237 x3 - 818 x4 - 340 x5 - 621 x6 - 270 x7
     - 357 x8 - 125 x9 - 80 x10 - 811 x11 <= -1
Bounds
 0 <= x1 <= 1
 0 <= x2 <= 1
 0 <= x3 <= 1
 0 <= x4 <= 1
 0 <= x5 <= 1
 0 <= x6 <= 1
 0 <= x7 <= 1
 0 <= x8 <= 1
 0 <= x9 <= 1
 0 <= x10 <= 1
 0 <= x11 <= 1
End
